%oldchk=/rds/general/user/rk820/home/run_g16/test009_16_savechk.chk
%chk=/rds/general/user/rk820/home/run_g16/test009_16_readchk.chk
#P TEST freq STO-3G geom=check

Gaussian Test Job 16
STO-3G BERNY OPTIMIZATION OF WATER
read previous .chk to get optimised geometry for freq 

0 1

