%chk=/rds/general/user/rk820/home/run_g16/test009_16_savechk.chk
#P TEST OPT STO-3G scf=conventional

Gaussian Test Job 16
STO-3G BERNY OPTIMIZATION OF WATER
save .chk to read later for freq 

 0 1
 O 
 H 1 R
 H 1 R 2 A

R 0.96
A 109.471221


