%chk=manual_displacement2.chk
# hf/3-21g geom=connectivity

Title Card Required

0 1
 C                 -0.07840000    0.00000000   -0.58689400
 H                  0.34300000   -0.94278800   -1.11029600
 H                  0.34300000    0.94278800   -1.11029600
 O                  0.01960000    0.00000000    0.71774500

 1 2 1.0 3 1.0 4 1.5
 2
 3
 4

