%chk=CAM-B3LYP_job1
%NProc=32
%Mem=110GB

#p /CAM-B3LYP geom=connectivity Opt Freq

Ground state optimization and frequency calculation for formaldehyde

0 1
 C                 -0.52226814   -0.40421304    0.00000000
 H                  0.01290043   -1.33076287    0.00000000
 H                 -1.59226812   -0.40440770    0.00000000
 O                  0.10673358    0.68570778    0.00000000

 1 2 1.0 3 1.0 4 2.0
 2
 3
 4

--Link1--
%oldchk=CAM-B3LYP_job1
%chk=CAM-B3LYP_job2
%NProc=32
%Mem=110GB

#p TD/CAM-B3LYP TD=(nstates=2, Root=1) geom=check Density=Current

TD/CAM-B3LYP for formaldehyde, calculating the first two excited states and looking at the first one.

0 1

--Link1--
%oldchk=CAM-B3LYP_job2
%chk=CAM-B3LYP_job3
%NProc=32
%Mem=110GB

#p TD(Root=1)/CAM-B3LYP geom=check Density=Current Opt

TD/CAM-B3LYP for formaldehyde, optimizing its first excited state geometry.

0 1

--Link1--
%oldchk=CAM-B3LYP_job3
%chk=CAM-B3LYP_job4
%NProc=32
%Mem=110GB

#p TD(Root=1)/CAM-B3LYP geom=check Density=Current Freq

TD/CAM-B3LYP for formaldehyde, performing a frequency calculation on the first excited state.

0 1

