%chk=CAM-B3LYP_job1.chk
%NProc=32
%Mem=110GB

#p CAM-B3LYP/TZVP geom=connectivity Opt Freq

Ground state optimization and frequency calculation for formaldehyde

0 1
 C                 -0.52226814   -0.40421304    0.00000000
 H                  0.01290043   -1.33076287    0.00000000
 H                 -1.59226812   -0.40440770    0.00000000
 O                  0.10673358    0.68570778    0.00000000

 1 2 1.0 3 1.0 4 2.0
 2
 3
 4

--Link1--
%oldchk=CAM-B3LYP_job1.chk
%chk=CAM-B3LYP_job2.chk
%NProc=32
%Mem=110GB

#p CAM-B3LYP/TZVP TD=(nstates=2, Root=1) geom=check Density=Current

TD/CAM-B3LYP for formaldehyde, calculating the first two excited states and looking at the first one.

0 1

--Link1--
%oldchk=CAM-B3LYP_job2.chk
%chk=CAM-B3LYP_job3.chk
%NProc=32
%Mem=110GB

#p CAM-B3LYP/TZVP TD=(nstates=2, Root=1) geom=connectivity Density=Current Opt Freq=savenormalmodes

TD/CAM-B3LYP for formaldehyde, optimizing its first excited state geometry.

0 1
 C                 -0.08160000    0.00000000   -0.57725200
 H                  0.33600000   -0.95209700   -1.10514300
 H                  0.33600000    0.95209700   -1.10514300
 O                  0.01920000    0.00000000    0.70922500

 1 2 1.0 3 1.0 4 2.0
 2
 3
 4

--Link1--
%chk=CAM-B3LYP_job1.chk
%NProc=32
%Mem=110GB

#p CAM-B3LYP/TZVP Freq(ReadFC, FCHT, ReadFCHT) NoSymm geom=check guess=read

absorption spectra for formaldehyde.

0 1

SpecHwHm=400 SpecRes=20 InpDEner=0.0768

CAM-B3LYP_job3.chk

--Link1--

%chk=CAM-B3LYP_job1.chk
%NProc=32
%Mem=110GB

#p CAM-B3LYP/TZVP Freq(ReadFC, FCHT, ReadFCHT, emission) NoSymm geom=check guess=read

Emission spectra for formaldehyde.

0 1

SpecHwHm=400 SpecRes=20 InpDEner=0.0768

CAM-B3LYP_job3.chk

