%mem=250GB
%nprocshared=32
%chk=Anthracene_n_1-1.chk

#p opt freq b3lyp/def2tzvp geom=connectivity

Ground state optimization and frequency calculation for neutral anthracene.

0 1
 C                 -7.02260305   -3.18779105   -0.01291600
 C                 -5.65798005   -3.18779105   -0.01291600
 C                 -4.92508905   -1.95657005   -0.01291600
 C                 -5.64908605   -0.72482305   -0.01843400
 C                 -7.08132605   -0.76631405   -0.01973400
 C                 -7.74510905   -1.95860705   -0.01636300
 C                 -3.52618805   -1.93368105   -0.00802000
 C                 -4.94870905    0.48634395   -0.02015500
 C                 -3.54976805    0.50922795   -0.01453000
 C                 -2.82579905   -0.72247505   -0.00711000
 C                 -1.39361705   -0.68085105    0.00000000
 H                 -0.84774705   -1.63637805    0.00660100
 C                 -0.72988005    0.51150395    0.00104200
 C                 -1.45236305    1.74061895   -0.00713000
 C                 -2.81700605    1.74047395   -0.01449700
 H                 -2.96848505   -2.88291805   -0.00370100
 H                 -7.58847505   -4.13106905   -0.01051200
 H                 -5.08865405   -4.12952505   -0.00981000
 H                 -7.62713905    0.18923195   -0.02433800
 H                 -8.84450705   -1.99477205   -0.01779400
 H                 -5.50684805    1.43532495   -0.02442300
 H                  0.36952595    0.54740795    0.00720200
 H                 -0.88628305    2.68379595   -0.00603500
 H                 -3.38654905    2.68209095   -0.02076900

 1 2 2.0 6 1.5 17 1.0
 2 3 1.5 18 1.0
 3 4 1.5 7 1.5
 4 5 1.5 8 1.5
 5 6 2.0 19 1.0
 6 20 1.0
 7 10 1.5 16 1.0
 8 9 1.5 21 1.0
 9 10 1.5 15 1.5
 10 11 1.5
 11 12 1.0 13 2.0
 12
 13 14 1.5 22 1.0
 14 15 2.0 23 1.0
 15 24 1.0
 16
 17
 18
 19
 20
 21
 22
 23
 24

--Link1--
%Mem=250GB
%NProcShared=32
%oldchk=Anthracene_n_1-1.chk
%chk=Anthracene_n_1-2.chk

#p opt freq=savenormalmodes b3lyp/def2tzvp TD=(nstates=2, Root=1) geom=check                                                     

Neutral anthracene TD-DFT excitation/optimization freq calculation.                                                             

0 1

--Link1--
%chk=Anthracene_n_1-1.chk
%NProcShared=32
%Mem=250GB

#p B3LYP/def2TZVP Freq(ReadFC, FC, ReadFCHT) geom=check guess=read

Franck-Condon Analysis of neutral anthracene for the absorption spectra.

0 1

SpecHwHm=250 SpecRes=20 InpDEner=0.110

Anthracene_n_1-2.chk

--Link1--
%chk=Anthracene_n_1-1.chk
%NProcShared=32
%Mem=250GB

#p B3LYP/def2TZVP Freq(ReadFC, FC, ReadFCHT, emission) geom=check guess=read

Franck-Condon Analysis of neutral anthracene for the emission spectra.

0 1

SpecHwHm=250 SpecRes=20 InpDEner=0.110

Anthracene_n_1-2.chk

--Link1--
%chk=Anthracene_n_1-1.chk
%NProcShared=32
%Mem=250GB

#p B3LYP/def2TZVP Freq(ReadFC, HT, ReadFCHT) geom=check guess=read

Herzberg-Teller Analysis of neutral anthracene for the absorption spectra.

0 1

SpecHwHm=250 SpecRes=20 InpDEner=0.110

Anthracene_n_1-2.chk

--Link1--
%chk=Anthracene_n_1-1.chk
%NProcShared=32
%Mem=250GB

#p B3LYP/def2TZVP Freq(ReadFC, HT, ReadFCHT, emission) geom=check guess=read

Herzberg-Teller Analysis of neutral anthracene for the emission spectra.

0 1

SpecHwHm=250 SpecRes=20 InpDEner=0.110

Anthracene_n_1-2.chk

--Link1--
%chk=Anthracene_n_1-1.chk
%NProcShared=32
%Mem=250GB

#p B3LYP/def2TZVP Freq(ReadFC, FCHT, ReadFCHT) geom=check guess=read

Franck-Condon Herzberg-Teller Analysis of neutral anthracene for the absorption spectra.

0 1

SpecHwHm=250 SpecRes=20 InpDEner=0.110

Anthracene_n_1-2.chk

--Link1--
%chk=Anthracene_n_1-1.chk
%NProcShared=32
%Mem=250GB

#p B3LYP/def2TZVP Freq(ReadFC, FCHT, ReadFCHT, emission) geom=check guess=read

Franck-Condon Herzberg-Teller Analysis of neutral anthracene for the emission spectra.

0 1

SpecHwHm=250 SpecRes=20 InpDEner=0.110

Anthracene_n_1-2.chk


