%chk=Perylene2-1.chk
%NProcShared=128
%Mem=900GB

#p B3LYP/Def2TZVPP geom=connectivity opt freq

Ground state geometry optimization and frequency calculation of perylene.

0 1
 C                 -1.20568994   -3.39753498   -0.00015147
 C                  0.21957206   -3.39753498   -0.00015147
 C                  0.90215006   -2.16528398   -0.00015147
 C                  0.16572306   -0.94050298    0.00002453
 C                 -1.24272494   -0.96551498   -0.00008847
 C                 -1.91110494   -2.22433998   -0.00014847
 C                  2.33104206   -2.13990998   -0.00010347
 C                  0.85820006    0.30963902    0.00039253
 C                  2.28709706    0.33502402    0.00078653
 C                  3.02351806   -0.88975498    0.00049653
 C                  2.96964706    1.56728002    0.00152753
 C                  0.13230706    1.51688602    0.00060353
 C                 -1.29205594    1.46630302    0.00029353
 C                 -1.95536994    0.26879002   -0.00001247
 H                 -3.05565094    0.23636402   -0.00016347
 H                 -1.84819294    2.41624002    0.00036253
 H                 -1.72775694   -4.36661598   -0.00015747
 H                 -3.01184094   -2.23099398   -0.00014647
 C                  3.05692206   -3.34714798   -0.00052947
 C                  4.48128806   -3.29656198   -0.00049647
 C                  5.14460306   -2.09904998    0.00034753
 C                  4.43195506   -0.86475198    0.00090453
 H                  5.03742006   -4.24649298   -0.00099347
 H                  6.24488306   -2.06661998    0.00059753
 C                  4.39490906    1.56728502    0.00232053
 H                  4.91697306    2.53638602    0.00332753
 C                  5.10033206    0.39408502    0.00191253
 H                  6.20107206    0.40076802    0.00235953
 H                  0.86078538   -4.29131653   -0.00026923
 H                  2.50693000   -4.29978050   -0.00064138
 H                  0.68229354    2.46952168    0.00101721
 H                  2.38617677    2.49978332    0.00164561

 1 2 1.5 6 2.0 17 1.0
 2 3 1.5 29 1.0
 3 4 1.5 7 1.5
 4 5 1.5 8 1.5
 5 6 1.5 14 1.5
 6 18 1.0
 7 10 1.5 19 1.5
 8 9 1.5 12 1.5
 9 10 1.5 11 1.5
 10 22 1.5
 11 25 1.5 32 1.0
 12 13 1.5 31 1.0
 13 14 2.0 16 1.0
 14 15 1.0
 15
 16
 17
 18
 19 20 1.5 30 1.0
 20 21 2.0 23 1.0
 21 22 1.5 24 1.0
 22 27 1.5
 23
 24
 25 26 1.0 27 2.0
 26
 27 28 1.0
 28
 29
 30
 31
 32

--Link1--
%oldchk=Perylene2-1.chk
%chk=Perylene2-2.chk
%NProcShared=128
%Mem=900GB

#p B3LYP/Def2TZVPP TD=(NStates=2, Root=1) geom=connectivity opt freq=savenormalmodes

One point excitation calculation for the perylene molecule, followed by the excited state geometry optimization.

0 1
 C
 C                  1            B1
 C                  2            B2    1            A1
 C                  3            B3    2            A2    1            D1    0
 C                  4            B4    3            A3    2            D2    0
 C                  1            B5    2            A4    3            D3    0
 C                  3            B6    2            A5    1            D4    0
 C                  4            B7    3            A6    2            D5    0
 C                  8            B8    4            A7    3            D6    0
 C                  9            B9    8            A8    4            D7    0
 C                  9           B10    8            A9    4            D8    0
 C                  8           B11    4           A10    3            D9    0
 C                 12           B12    8           A11    4           D10    0
 C                 13           B13   12           A12    8           D11    0
 H                 14           B14   13           A13   12           D12    0
 H                 13           B15   12           A14    8           D13    0
 H                  1           B16    6           A15    5           D14    0
 H                  6           B17    1           A16    2           D15    0
 C                  7           B18    3           A17    2           D16    0
 C                 19           B19    7           A18    3           D17    0
 C                 20           B20   19           A19    7           D18    0
 C                 10           B21    9           A20    8           D19    0
 H                 20           B22   19           A21    7           D20    0
 H                 21           B23   20           A22   19           D21    0
 C                 11           B24    9           A23    8           D22    0
 H                 25           B25   11           A24    9           D23    0
 C                 25           B26   11           A25    9           D24    0
 H                 27           B27   25           A26   11           D25    0
 H                  2           B28    1           A27    6           D26    0
 H                 19           B29    7           A28    3           D27    0
 H                 12           B30    8           A29    4           D28    0
 H                 11           B31    9           A30    8           D29    0

   B1             1.42400000
   B2             1.36000000
   B3             1.43200000
   B4             1.46100000
   B5             1.37400000
   B6             1.47500000
   B7             1.43200000
   B8             1.47500000
   B9             1.43200000
   B10            1.38600000
   B11            1.38600000
   B12            1.42400000
   B13            1.37400000
   B14            1.10075871
   B15            1.10075823
   B16            1.10075971
   B17            1.10075611
   B18            1.38600000
   B19            1.42400000
   B20            1.37400000
   B21            1.46100000
   B22            1.10075063
   B23            1.10075785
   B24            1.42400000
   B25            1.10077635
   B26            1.37400000
   B27            1.10076038
   B28            1.10000000
   B29            1.10000000
   B30            1.10000000
   B31            1.10000000
   A1           118.55043739
   A2           122.33755262
   A3           118.45751661
   A4           120.98103777
   A5           119.23634364
   A6           123.45213548
   A7           118.11598834
   A8           118.98089616
   A9           119.54371889
   A10          121.88133235
   A11          119.11328061
   A12          120.85907595
   A13          120.80111041
   A14          118.60065513
   A15          120.53006771
   A16          120.81117736
   A17          119.76022585
   A18          118.68941346
   A19          120.92884415
   A20          119.03131452
   A21          118.41339660
   A22          120.68390698
   A23          118.88831465
   A24          118.51299883
   A25          120.88697192
   A26          120.74032897
   A27          125.47977676
   A28          119.37785247
   A29          119.14150774
   A30          119.27855892
   D1             0.00864960
   D2            -0.01375109
   D3            -0.00000000
   D4           179.99803555
   D5           179.98248445
   D6            -0.00909949
   D7             0.01455724
   D8          -179.98250795
   D9          -179.99778422
   D10           -0.00719658
   D11            0.00939559
   D12          179.99472801
   D13         -179.99392795
   D14          179.99762369
   D15         -180.00000000
   D16            0.02202809
   D17          179.99903869
   D18            0.01993774
   D19         -179.99921993
   D20         -179.99038191
   D21          179.98613469
   D22          179.98128771
   D23         -179.97452986
   D24            0.02214994
   D25          179.98975999
   D26         -179.99260893
   D27           -0.01498063
   D28          179.99207564
   D29           -0.00870575

 1 2 1.5 6 2.0 17 1.0
 2 3 1.5 29 1.0
 3 4 1.5 7 1.5
 4 5 1.5 8 1.5
 5 6 1.5 14 1.5
 6 18 1.0
 7 10 1.5 19 1.5
 8 9 1.5 12 1.5
 9 10 1.5 11 1.5
 10 22 1.5
 11 25 1.5 32 1.0
 12 13 1.5 31 1.0
 13 14 2.0 16 1.0
 14 15 1.0
 15
 16
 17
 18
 19 20 1.5 30 1.0
 20 21 2.0 23 1.0
 21 22 1.5 24 1.0
 22 27 1.5
 23
 24
 25 26 1.0 27 2.0
 26
 27 28 1.0
 28
 29
 30
 31
 32

--Link1--
%chk=Perylene2-1.chk
%NProcShared=128
%Mem=900GB

#p B3LYP/Def2TZVPP Freq(ReadFC, FC, ReadFCHT) NoSymm geom=check guess=read 

FC analysis for perylene, investigating the S1 PES and simulating the absorption spectrum.

0 1

SpecHwHm=400 SpecRes=20 InpDEner=0.0965

Perylene2-2.chk

--Link1--
%chk=Perylene1-1.chk
%NProcShared=128
%Mem=900GB

#p B3LYP/Def2TZVPP Freq(ReadFC, FC, ReadFCHT) NoSymm geom=check guess=read

FC analysis for perylene, simulating the emission spectrum.

0 1

SpecHwHm=400 SpecRes=20 InpDEner=0.0965

Perylene2-2.chk

