%oldchk=/rds/general/user/rk820/home/dibs-g16/fc_ht/formaldehyde/formaldehyde_CAM-B3LYP.chk
%chk=/rds/general/user/rk820/home/dibs-g16/fc_ht/formaldehyde/formaldehyde_es_CAM-B3LYP.chk
%NProcShared=32
%Mem=110GB

# CAM-B3LYP/TZVP TD=(nstates=2) geom=check Density=Current opt

CAM-B3LYP/TZVP for formaldehyde, calculating the first two excited states and optimizing its geometry.

0 1

