%oldchk=/rds/general/user/rk820/home/dibs-g16/fc_ht/formaldehyde/formaldehyde.chk
%chk=/rds/general/user/rk820/home/dibs-g16/fc_ht/formaldehyde/formaldehyde_es_STO-3G.chk

# CIS/STO-3G CIS=(nstates=2, Root=1) geom=check Density=Current

HF/STO-3G for formaldehyde, calculating the first two excited states and optimizing its geometry.

0 1

