%chk=manual_displacement_CAM-B3LYP.chk
# CAM-B3LYP/TZVP TD=(NStates=2, Root=1) geom=connectivity Opt Freq

Manually displaced optimization and frequency calculation of formaldehyde

0 1
 C                 -0.08160000    0.00000000   -0.57725200
 H                  0.33600000   -0.95209700   -1.10514300
 H                  0.33600000    0.95209700   -1.10514300
 O                  0.01920000    0.00000000    0.70922500

 1 2 1.0 3 1.0 4 2.0
 2
 3
 4

